Maximize
  0 x0 - 15 x1 + 0 x2 + 19 x3 + 49 x4 + 10 x5 + 0 x6 + 0 x7 + 0 x8 + 0 x9
   + 0 x10 + 0 x11 + 0 x12 - 11 x13 + 31 x14 + 36 x15 + 0 x16 + 0 x17
   + 0 x18 + 0 x19 + 0 x20 + 0 x21 - 11 x22 + 0 x23 + 35 x24 - 6 x25
   + 0 x26 + 34 x27 + 0 x28 + 3 x29 + 22 x30 + 0 x31 - 29 x32 + 0 x33
   + 0 x34 + 9 x35 - 29 x36 + 40 x37 + 14 x38 + 25 x39 + [ 43 x0 ^2
   - 72 x0 * x1 - 42 x0 * x2 + 22 x0 * x3 - 86 x0 * x7 + 42 x0 * x9
   - 68 x0 * x10 + 6 x0 * x13 - 96 x0 * x15 + 86 x0 * x16 + 20 x0 * x17
   + 32 x0 * x20 - 20 x0 * x21 - 70 x0 * x24 - 40 x0 * x26 + 70 x0 * x28
   - 30 x0 * x29 - 52 x0 * x30 - 94 x0 * x31 - 46 x0 * x32 - 34 x0 * x39
   + 22 x1 * x2 + 72 x1 * x3 + 52 x1 * x4 - 42 x1 * x5 + 82 x1 * x7
   + 88 x1 * x8 - 18 x1 * x10 + 50 x1 * x11 - 52 x1 * x18 + 6 x1 * x19
   + 58 x1 * x20 - 16 x1 * x22 - 84 x1 * x23 + 4 x1 * x25 + 30 x1 * x30
   + 84 x1 * x31 - 64 x1 * x35 + 96 x1 * x37 - 48 x1 * x38 - 90 x1 * x39
   + 40 x2 ^2 - 84 x2 * x4 + 90 x2 * x5 - 78 x2 * x6 + 40 x2 * x7
   - 74 x2 * x10 - 16 x2 * x13 - 2 x2 * x14 + 28 x2 * x15 - 56 x2 * x17
   - 80 x2 * x18 - 82 x2 * x20 + 66 x2 * x21 - 84 x2 * x22 - 90 x2 * x28
   - 68 x2 * x30 - 70 x2 * x33 - 58 x2 * x36 - 58 x2 * x37 - 80 x2 * x39
   - 9 x3 ^2 - 26 x3 * x7 + 54 x3 * x8 - 80 x3 * x9 + 86 x3 * x15
   - 92 x3 * x16 - 68 x3 * x19 + 90 x3 * x20 + 20 x3 * x21 - 56 x3 * x24
   + 86 x3 * x27 - 16 x3 * x28 - 62 x3 * x29 - 36 x3 * x32 + 30 x3 * x33
   + 16 x3 * x34 - 4 x3 * x35 + 24 x3 * x37 - 68 x3 * x38 - 4 x3 * x39
   + 26 x4 * x5 - 10 x4 * x9 + 6 x4 * x10 + 44 x4 * x11 + 42 x4 * x14
   - 2 x4 * x15 - 30 x4 * x17 - 98 x4 * x20 - 98 x4 * x21 - 34 x4 * x22
   - 70 x4 * x24 - 98 x4 * x25 - 52 x4 * x26 + 36 x4 * x28 - 98 x4 * x32
   + 82 x4 * x33 + 76 x4 * x34 - 92 x4 * x37 - 12 x4 * x39 - x5 ^2
   - 12 x5 * x7 + 68 x5 * x8 - 58 x5 * x9 + 24 x5 * x14 + 40 x5 * x17
   - 30 x5 * x18 + 22 x5 * x22 - 8 x5 * x23 + 88 x5 * x29 - 34 x5 * x30
   + 90 x5 * x31 - 12 x5 * x32 - 94 x5 * x35 + 24 x5 * x36 - 92 x6 * x9
   - 36 x6 * x13 + 22 x6 * x14 + 8 x6 * x16 + 30 x6 * x20 - 20 x6 * x24
   - 32 x6 * x25 - 94 x6 * x26 - 42 x6 * x27 - 82 x6 * x29 + 32 x6 * x30
   - 2 x6 * x34 + 34 x6 * x37 + 30 x6 * x38 + 92 x6 * x39 + 76 x7 * x8
   + 76 x7 * x18 + 44 x7 * x19 - 70 x7 * x20 - 90 x7 * x23 - 2 x7 * x24
   - 74 x7 * x26 + 28 x7 * x27 - 86 x7 * x28 + 38 x7 * x32 + 40 x7 * x34
   - 4 x7 * x36 - 94 x8 * x9 + 54 x8 * x11 - 86 x8 * x14 - 64 x8 * x15
   - 52 x8 * x16 + 22 x8 * x18 - 96 x8 * x21 - 68 x8 * x23 + 54 x8 * x24
   - 22 x8 * x25 + 86 x8 * x27 + 82 x8 * x29 - 26 x8 * x30 + 26 x8 * x33
   - 12 x8 * x35 - 23 x9 ^2 - 32 x9 * x10 - 6 x9 * x12 - 96 x9 * x14
   - 42 x9 * x15 + 10 x9 * x17 + 18 x9 * x18 - 20 x9 * x21 - 42 x9 * x27
   + 46 x9 * x29 - 18 x9 * x30 + 78 x9 * x33 - 74 x9 * x34 - 16 x9 * x37
   - 6 x9 * x38 - 36 x9 * x39 - 90 x10 * x11 + 20 x10 * x12 - 58 x10 * x14
   + 68 x10 * x17 - 62 x10 * x18 - 74 x10 * x19 - 80 x10 * x21
   + 24 x10 * x24 - 36 x10 * x27 - 88 x10 * x29 - 54 x10 * x30
   + 22 x10 * x33 + 54 x10 * x35 + 17 x11 ^2 + 58 x11 * x13 - 70 x11 * x14
   + 50 x11 * x16 + 16 x11 * x20 - 2 x11 * x21 - 98 x11 * x27
   + 34 x11 * x30 + 2 x11 * x34 - 28 x11 * x35 + 18 x11 * x36
   + 20 x11 * x38 + 78 x12 * x14 - 40 x12 * x15 + 6 x12 * x17
   - 98 x12 * x19 + 80 x12 * x20 + 76 x12 * x23 - 52 x12 * x24
   - 4 x12 * x25 - 32 x12 * x29 + 84 x12 * x31 + 12 x12 * x37
   + 86 x12 * x38 - 32 x12 * x39 + 46 x13 * x15 + 4 x13 * x17
   - 10 x13 * x19 + 32 x13 * x24 - 4 x13 * x26 - 12 x13 * x28
   - 28 x13 * x30 + 58 x13 * x33 - 94 x13 * x34 + 80 x13 * x35
   + 22 x13 * x37 + 80 x13 * x38 - 46 x13 * x39 - 24 x14 * x15
   + 80 x14 * x17 + 24 x14 * x19 - 32 x14 * x20 - 16 x14 * x21
   - 20 x14 * x22 - 68 x14 * x25 - 72 x14 * x26 + 38 x14 * x30
   + 32 x14 * x31 + 58 x14 * x33 + 28 x14 * x34 + 26 x14 * x35
   - 4 x14 * x36 + 22 x14 * x37 - 20 x14 * x38 - 34 x14 * x39 - 17 x15 ^2
   - 16 x15 * x17 - 32 x15 * x18 + 16 x15 * x23 + 62 x15 * x25
   + 78 x15 * x26 + 92 x15 * x27 - 76 x15 * x28 - 68 x15 * x36
   + 42 x15 * x37 + 6 x16 ^2 - 50 x16 * x19 + 14 x16 * x20 - 16 x16 * x22
   - 16 x16 * x27 - 86 x16 * x29 + 16 x16 * x31 + 52 x16 * x34
   + 68 x16 * x35 - 34 x16 * x36 + 14 x16 * x39 - 46 x17 * x19
   + 62 x17 * x21 + 54 x17 * x23 - 84 x17 * x26 - 98 x17 * x28
   - 34 x17 * x30 - 8 x17 * x32 - 62 x17 * x36 + 48 x17 * x37
   + 50 x17 * x39 - 72 x18 * x19 - 94 x18 * x20 - 52 x18 * x21
   + 48 x18 * x24 + 14 x18 * x25 + 28 x18 * x27 - 84 x18 * x31
   + 44 x18 * x32 + 66 x18 * x33 - 32 x18 * x34 - 38 x18 * x35
   - 88 x18 * x37 - 52 x18 * x39 + 30 x19 * x20 - 20 x19 * x21
   - 58 x19 * x27 - 72 x19 * x28 - 64 x19 * x29 - 78 x19 * x30
   - 40 x19 * x33 - 52 x19 * x36 + 40 x19 * x38 - 6 x19 * x39
   + 18 x20 * x21 - 44 x20 * x24 + 72 x20 * x25 - 82 x20 * x27
   + 32 x20 * x31 - 80 x20 * x32 - 94 x20 * x34 + 74 x20 * x35
   + 50 x20 * x37 - 46 x20 * x38 - 70 x20 * x39 - 42 x21 * x23
   - 70 x21 * x25 + 30 x21 * x29 - 42 x21 * x31 + 88 x21 * x32
   + 38 x21 * x34 - 98 x21 * x36 + 96 x21 * x37 + 32 x21 * x38
   - 48 x21 * x39 - 46 x22 ^2 + 56 x22 * x23 - 94 x22 * x27 - 88 x22 * x28
   - 60 x22 * x29 - 94 x22 * x30 + 22 x22 * x33 - 26 x22 * x34
   + 68 x22 * x35 + 26 x22 * x36 + 78 x22 * x37 + 80 x22 * x39
   - 46 x23 * x24 + 26 x23 * x25 + 86 x23 * x30 - 12 x23 * x31
   - 42 x23 * x33 + 50 x23 * x35 - 86 x23 * x36 - 33 x24 ^2 + 76 x24 * x31
   + 14 x24 * x33 + 40 x24 * x35 - 30 x24 * x36 - 66 x24 * x38
   - 12 x24 * x39 + 6 x25 ^2 - 28 x25 * x27 + 28 x25 * x29 + 20 x25 * x31
   + 74 x25 * x34 + 72 x25 * x38 + 62 x25 * x39 - 58 x26 * x27
   - 20 x26 * x28 - 40 x26 * x30 + 56 x26 * x31 + 14 x26 * x32
   - 56 x26 * x35 - 72 x26 * x37 + 30 x26 * x38 - 54 x26 * x39
   - 6 x27 * x30 - 56 x27 * x31 - 70 x27 * x34 - 64 x27 * x35
   - 94 x28 * x30 + 52 x28 * x33 + 82 x28 * x35 + 28 x28 * x37 + 18 x29 ^2
   + 60 x29 * x30 - 90 x29 * x31 - 2 x29 * x32 - 16 x29 * x33
   - 94 x29 * x34 + 54 x29 * x35 + 56 x29 * x36 - 78 x29 * x37
   + 12 x29 * x38 - 21 x30 ^2 - 98 x30 * x31 + 34 x30 * x32 + 48 x30 * x37
   - 68 x30 * x38 - 64 x31 * x33 + 88 x31 * x35 - 60 x31 * x36
   + 84 x31 * x37 - 22 x31 * x38 - 49 x32 ^2 - 26 x32 * x33 + 98 x32 * x37
   - 4 x33 ^2 + 76 x33 * x34 - 20 x34 * x38 + 23 x35 ^2 - 74 x35 * x38
   - 32 x36 * x39 - 78 x37 * x38 + 37 x38 ^2 + 41 x39 ^2 ] / 2 
Subject To
Bounds
 x0 <= 1
 x1 <= 1
 x2 <= 1
 x3 <= 1
 x4 <= 1
 x5 <= 1
 x6 <= 1
 x7 <= 1
 x8 <= 1
 x9 <= 1
 x10 <= 1
 x11 <= 1
 x12 <= 1
 x13 <= 1
 x14 <= 1
 x15 <= 1
 x16 <= 1
 x17 <= 1
 x18 <= 1
 x19 <= 1
 x20 <= 1
 x21 <= 1
 x22 <= 1
 x23 <= 1
 x24 <= 1
 x25 <= 1
 x26 <= 1
 x27 <= 1
 x28 <= 1
 x29 <= 1
 x30 <= 1
 x31 <= 1
 x32 <= 1
 x33 <= 1
 x34 <= 1
 x35 <= 1
 x36 <= 1
 x37 <= 1
 x38 <= 1
 x39 <= 1
End
